c p0=0.08
p cnf 10 43
-6 3 -1 0
-7 8 -4 0
1 -3 -8 0
6 10 8 0
-10 2 9 0
7 10 -5 0
10 -6 8 0
-9 3 -6 0
9 -7 -1 0
2 8 5 0
-5 6 -9 0
-7 2 8 0
-9 -7 8 0
9 -3 -7 0
9 -2 -1 0
4 -1 -6 0
4 10 7 0
-9 -4 -5 0
9 -3 7 0
-4 5 -10 0
2 4 -3 0
-4 3 -9 0
6 -1 9 0
8 3 4 0
3 -8 -6 0
-10 -4 3 0
-1 9 6 0
9 4 -7 0
-10 -3 -2 0
9 5 -1 0
-9 -1 -3 0
-6 7 -1 0
-4 7 -2 0
2 7 -3 0
-7 10 9 0
-9 10 -6 0
7 3 8 0
4 7 8 0
-1 2 -3 0
5 -6 -1 0
-3 1 -4 0
5 -4 6 0
1 -7 9 0
